Si                                      
   5.38930000000000     
     0.0000000000000000    0.5041477779785747    0.5041477779785747
     0.5041477779785747    0.0000000000000000    0.5041477779785747
     0.5041477779785747    0.5041477779785747    0.0000000000000000
   Si
     2
Direct
  0.8750000000000000  0.8750000000000000  0.8750000000000000
  0.1250000000000000  0.1250000000000000  0.1250000000000000
 
  0.00000000E+00  0.00000000E+00  0.00000000E+00
  0.00000000E+00  0.00000000E+00  0.00000000E+00
