Si
   1.0
     0.0000000000000000   10.8680144794397311   10.8680144794397311
    10.8680144794397311    0.0000000000000000   10.8680144794397311
    10.8680144794397311   10.8680144794397311    0.0000000000000000
 128
Direct
  0.2187500000000000  0.2187500000000000  0.2187500000000000
  0.4687500000000000  0.2187500000000000  0.2187500000000000
  0.7187500000000000  0.2187500000000000  0.2187500000000000
  0.9687500000000000  0.2187500000000000  0.2187500000000000
  0.2187500000000000  0.4687500000000000  0.2187500000000000
  0.4687500000000000  0.4687500000000000  0.2187500000000000
  0.7187500000000000  0.4687500000000000  0.2187500000000000
  0.9687500000000000  0.4687500000000000  0.2187500000000000
  0.2187500000000000  0.7187500000000000  0.2187500000000000
  0.4687500000000000  0.7187500000000000  0.2187500000000000
  0.7187500000000000  0.7187500000000000  0.2187500000000000
  0.9687500000000000  0.7187500000000000  0.2187500000000000
  0.2187500000000000  0.9687500000000000  0.2187500000000000
  0.4687500000000000  0.9687500000000000  0.2187500000000000
  0.7187500000000000  0.9687500000000000  0.2187500000000000
  0.9687500000000000  0.9687500000000000  0.2187500000000000
  0.2187500000000000  0.2187500000000000  0.4687500000000000
  0.4687500000000000  0.2187500000000000  0.4687500000000000
  0.7187500000000000  0.2187500000000000  0.4687500000000000
  0.9687500000000000  0.2187500000000000  0.4687500000000000
  0.2187500000000000  0.4687500000000000  0.4687500000000000
  0.4687500000000000  0.4687500000000000  0.4687500000000000
  0.7187500000000000  0.4687500000000000  0.4687500000000000
  0.9687500000000000  0.4687500000000000  0.4687500000000000
  0.2187500000000000  0.7187500000000000  0.4687500000000000
  0.4687500000000000  0.7187500000000000  0.4687500000000000
  0.7187500000000000  0.7187500000000000  0.4687500000000000
  0.9687500000000000  0.7187500000000000  0.4687500000000000
  0.2187500000000000  0.9687500000000000  0.4687500000000000
  0.4687500000000000  0.9687500000000000  0.4687500000000000
  0.7187500000000000  0.9687500000000000  0.4687500000000000
  0.9687500000000000  0.9687500000000000  0.4687500000000000
  0.2187500000000000  0.2187500000000000  0.7187500000000000
  0.4687500000000000  0.2187500000000000  0.7187500000000000
  0.7187500000000000  0.2187500000000000  0.7187500000000000
  0.9687500000000000  0.2187500000000000  0.7187500000000000
  0.2187500000000000  0.4687500000000000  0.7187500000000000
  0.4687500000000000  0.4687500000000000  0.7187500000000000
  0.7187500000000000  0.4687500000000000  0.7187500000000000
  0.9687500000000000  0.4687500000000000  0.7187500000000000
  0.2187500000000000  0.7187500000000000  0.7187500000000000
  0.4687500000000000  0.7187500000000000  0.7187500000000000
  0.7187500000000000  0.7187500000000000  0.7187500000000000
  0.9687500000000000  0.7187500000000000  0.7187500000000000
  0.2187500000000000  0.9687500000000000  0.7187500000000000
  0.4687500000000000  0.9687500000000000  0.7187500000000000
  0.7187500000000000  0.9687500000000000  0.7187500000000000
  0.9687500000000000  0.9687500000000000  0.7187500000000000
  0.2187500000000000  0.2187500000000000  0.9687500000000000
  0.4687500000000000  0.2187500000000000  0.9687500000000000
  0.7187500000000000  0.2187500000000000  0.9687500000000000
  0.9687500000000000  0.2187500000000000  0.9687500000000000
  0.2187500000000000  0.4687500000000000  0.9687500000000000
  0.4687500000000000  0.4687500000000000  0.9687500000000000
  0.7187500000000000  0.4687500000000000  0.9687500000000000
  0.9687500000000000  0.4687500000000000  0.9687500000000000
  0.2187500000000000  0.7187500000000000  0.9687500000000000
  0.4687500000000000  0.7187500000000000  0.9687500000000000
  0.7187500000000000  0.7187500000000000  0.9687500000000000
  0.9687500000000000  0.7187500000000000  0.9687500000000000
  0.2187500000000000  0.9687500000000000  0.9687500000000000
  0.4687500000000000  0.9687500000000000  0.9687500000000000
  0.7187500000000000  0.9687500000000000  0.9687500000000000
  0.9687500000000000  0.9687500000000000  0.9687500000000000
  0.0312500000000000  0.0312500000000000  0.0312500000000000
  0.2812500000000000  0.0312500000000000  0.0312500000000000
  0.5312500000000000  0.0312500000000000  0.0312500000000000
  0.7812500000000000  0.0312500000000000  0.0312500000000000
  0.0312500000000000  0.2812500000000000  0.0312500000000000
  0.2812500000000000  0.2812500000000000  0.0312500000000000
  0.5312500000000000  0.2812500000000000  0.0312500000000000
  0.7812500000000000  0.2812500000000000  0.0312500000000000
  0.0312500000000000  0.5312500000000000  0.0312500000000000
  0.2812500000000000  0.5312500000000000  0.0312500000000000
  0.5312500000000000  0.5312500000000000  0.0312500000000000
  0.7812500000000000  0.5312500000000000  0.0312500000000000
  0.0312500000000000  0.7812500000000000  0.0312500000000000
  0.2812500000000000  0.7812500000000000  0.0312500000000000
  0.5312500000000000  0.7812500000000000  0.0312500000000000
  0.7812500000000000  0.7812500000000000  0.0312500000000000
  0.0312500000000000  0.0312500000000000  0.2812500000000000
  0.2812500000000000  0.0312500000000000  0.2812500000000000
  0.5312500000000000  0.0312500000000000  0.2812500000000000
  0.7812500000000000  0.0312500000000000  0.2812500000000000
  0.0312500000000000  0.2812500000000000  0.2812500000000000
  0.2812500000000000  0.2812500000000000  0.2812500000000000
  0.5312500000000000  0.2812500000000000  0.2812500000000000
  0.7812500000000000  0.2812500000000000  0.2812500000000000
  0.0312500000000000  0.5312500000000000  0.2812500000000000
  0.2812500000000000  0.5312500000000000  0.2812500000000000
  0.5312500000000000  0.5312500000000000  0.2812500000000000
  0.7812500000000000  0.5312500000000000  0.2812500000000000
  0.0312500000000000  0.7812500000000000  0.2812500000000000
  0.2812500000000000  0.7812500000000000  0.2812500000000000
  0.5312500000000000  0.7812500000000000  0.2812500000000000
  0.7812500000000000  0.7812500000000000  0.2812500000000000
  0.0312500000000000  0.0312500000000000  0.5312500000000000
  0.2812500000000000  0.0312500000000000  0.5312500000000000
  0.5312500000000000  0.0312500000000000  0.5312500000000000
  0.7812500000000000  0.0312500000000000  0.5312500000000000
  0.0312500000000000  0.2812500000000000  0.5312500000000000
  0.2812500000000000  0.2812500000000000  0.5312500000000000
  0.5312500000000000  0.2812500000000000  0.5312500000000000
  0.7812500000000000  0.2812500000000000  0.5312500000000000
  0.0312500000000000  0.5312500000000000  0.5312500000000000
  0.2812500000000000  0.5312500000000000  0.5312500000000000
  0.5312500000000000  0.5312500000000000  0.5312500000000000
  0.7812500000000000  0.5312500000000000  0.5312500000000000
  0.0312500000000000  0.7812500000000000  0.5312500000000000
  0.2812500000000000  0.7812500000000000  0.5312500000000000
  0.5312500000000000  0.7812500000000000  0.5312500000000000
  0.7812500000000000  0.7812500000000000  0.5312500000000000
  0.0312500000000000  0.0312500000000000  0.7812500000000000
  0.2812500000000000  0.0312500000000000  0.7812500000000000
  0.5312500000000000  0.0312500000000000  0.7812500000000000
  0.7812500000000000  0.0312500000000000  0.7812500000000000
  0.0312500000000000  0.2812500000000000  0.7812500000000000
  0.2812500000000000  0.2812500000000000  0.7812500000000000
  0.5312500000000000  0.2812500000000000  0.7812500000000000
  0.7812500000000000  0.2812500000000000  0.7812500000000000
  0.0312500000000000  0.5312500000000000  0.7812500000000000
  0.2812500000000000  0.5312500000000000  0.7812500000000000
  0.5312500000000000  0.5312500000000000  0.7812500000000000
  0.7812500000000000  0.5312500000000000  0.7812500000000000
  0.0312500000000000  0.7812500000000000  0.7812500000000000
  0.2812500000000000  0.7812500000000000  0.7812500000000000
  0.5312500000000000  0.7812500000000000  0.7812500000000000
  0.7812500000000000  0.7812500000000000  0.7812500000000000
