PREC = High
ISTART=1
ICHARG=1
IBRION = -1
NELMIN = 5
EDIFF = 1e-8
ALGO = Normal
ISMEAR = 0
SIGMA = 0.01
LREAL = .FALSE.
ADDGRID = .TRUE.
LWAVE = .FALSE.
LCHARG = .FALSE.
LPLANE = .TRUE.
NCORE  = 16
LSCALU = .FALSE.
NSIM   = 4
LDAU=.FALSE.
GGA = PS
NELM=200
