cbc62b453f81525ada0be6597a5d292a9a500227
1.0
   0.000000000000000    2.730615835179053    2.730615835179053
   2.730615835179053    0.000000000000000    2.730615835179053
   2.730615835179053    2.730615835179053    0.000000000000000
Si
2
Direct
   0.875000000000000    0.875000000000000    0.875000000000000
   0.125000000000000    0.125000000000000    0.125000000000000
